1 2
2 1
3 1
4 2
5 2
6 2
7 1
8 2
9 1
10 2
11 1
12 1
13 2
14 1
15 2
16 2
17 1
18 2
19 1
20 1
21 2
22 1
23 1
24 1
25 1
26 1
27 2
28 1
29 1
30 2
31 1
32 2
33 2
34 2
35 1
36 2
37 1
38 1
39 1
40 1
41 1
42 2
43 2
44 2
45 2
46 2
47 2
48 2
49 1
50 2
51 1
52 1
53 2
54 2
55 2
56 2
57 2
58 2
59 2
60 1
61 1
62 1
63 2
64 2
65 2
66 1
67 2
68 1
69 1
70 2
71 1
72 1
73 1
74 2
75 1
76 2
77 1
78 1
79 2
80 2
81 1
82 2
83 1
84 2
85 2
86 2
87 2
88 2
89 1
90 1
91 2
92 1
93 1
94 1
95 1
96 2
97 2
98 2
99 1
100 1
101 2
102 2
103 2
104 1
105 1
106 2
107 1
108 2
109 2
110 2
111 1
112 1
113 1
114 2
115 2
116 1
117 2
118 1
119 1
120 2
121 2
122 1
123 2
124 2
125 1
126 1
127 1
128 2
129 1
130 1
131 2
132 1
133 2
134 2
135 1
136 1
137 1
138 1
139 2
140 1
141 1
142 1
143 1
144 1
145 1
146 1
147 2
148 1
149 2
150 2
151 1
152 2
153 2
154 1
155 2
156 2
157 2
158 2
159 2
160 2
161 1
162 1
163 2
164 1
165 1
166 1
167 1
168 1
169 1
170 1
171 2
172 2
173 2
174 1
175 1
176 2
177 2
178 1
179 1
180 2
181 1
182 1
183 1
184 1
185 1
186 2
187 2
188 1
189 1
190 1
191 2
192 2
193 1
194 2
195 1
196 2
197 2
198 1
199 1
200 1
201 1
202 2
203 2
204 1
205 2
206 1
207 1
208 1
209 1
210 1
211 1
212 1
213 2
214 1
215 2
216 2
217 1
218 2
219 1
220 2
221 1
222 2
223 2
224 1
225 1
226 1
227 1
228 2
229 2
230 1
231 1
232 1
233 2
234 2
235 2
236 1
237 2
238 1
239 1
240 1
241 2
242 2
243 2
244 2
245 2
246 1
247 2
248 2
249 1
250 2
251 2
252 1
253 2
254 2
255 1
256 2
257 2
258 1
259 1
260 1
261 2
262 2
263 1
264 1
265 1
266 1
267 2
268 2
269 2
270 1
271 1
272 1
273 2
274 2
275 2
276 1
277 2
278 2
279 1
280 2
281 1
282 1
283 2
284 2
285 2
286 2
287 2
288 2
289 1
290 2
291 2
292 2
293 1
294 1
295 2
296 2
297 1
298 1
299 2
300 1
301 1
302 2
303 1
304 2
305 1
306 1
307 1
308 1
309 1
310 1
311 2
312 2
313 1
314 2
315 2
316 1
317 2
318 1
319 2
320 1
321 2
322 1
323 2
324 2
325 2
326 1
327 1
328 2
329 1
330 1
331 1
332 1
333 2
334 2
335 1
336 2
337 1
338 1
339 2
340 2
341 1
342 2
343 2
344 1
345 2
346 2
347 1
348 2
349 2
350 2
351 2
352 1
353 1
354 1
355 1
356 2
357 1
358 1
359 1
360 1
361 1
362 2
363 2
364 1
365 1
366 2
367 1
368 1
369 2
370 2
371 2
372 1
373 2
374 1
375 2
376 1
377 2
378 2
379 2
380 1
381 1
382 2
383 2
384 2
385 1
386 2
387 1
388 2
389 1
390 1
391 2
392 2
393 2
394 2
395 1
396 1
397 1
398 2
399 2
400 1
401 2
402 2
403 2
404 2
405 2
406 1
407 1
408 2
409 1
410 1
411 2
412 2
413 1
414 2
415 2
416 2
417 2
418 1
419 1
420 2
421 1
422 2
423 2
424 2
425 2
426 2
427 2
428 2
429 2
430 2
431 2
432 2
433 1
434 2
435 1
436 1
437 2
438 1
439 1
440 2
441 2
442 1
443 1
444 2
445 2
446 1
447 1
448 2
449 2
450 1
451 1
452 2
453 2
454 2
455 2
456 2
457 1
458 2
459 2
460 1
461 1
462 2
463 2
464 1
465 2
466 2
467 2
468 2
469 2
470 1
471 2
472 2
473 2
474 2
475 2
476 2
477 1
478 1
479 2
480 2
481 2
482 1
483 2
484 1
485 1
486 1
487 1
488 1
489 2
490 2
491 2
492 2
493 1
494 2
495 2
496 1
497 1
498 1
499 2
500 1
501 1
502 2
503 1
504 1
505 1
506 2
507 2
508 1
509 2
510 1
511 2
512 2
513 2
514 1
515 1
516 2
517 2
518 2
519 1
520 1
521 1
522 1
523 2
524 2
525 2
526 2
527 1
528 2
529 2
530 2
531 1
532 1
533 1
534 1
535 1
536 1
537 2
538 2
539 1
540 2
541 1
542 2
543 2
544 1
545 1
546 2
547 1
548 1
549 2
550 2
551 1
552 1
553 2
554 1
555 2
556 1
557 2
558 2
559 2
560 2
561 1
562 2
563 2
564 2
565 1
566 2
567 1
568 1
569 2
570 1
571 1
572 1
573 2
574 2
575 2
576 2
577 1
578 1
579 1
580 1
581 1
582 1
583 1
584 2
585 1
586 1
587 1
588 1
589 2
590 2
591 1
592 1
593 1
594 1
595 1
596 2
597 2
598 1
599 1
600 1
601 2
602 2
603 1
604 2
605 2
606 1
607 2
608 2
609 1
610 1
611 2
612 1
613 1
614 2
615 2
616 2
617 1
618 1
619 2
620 2
621 2
622 1
623 2
624 2
625 2
626 1
627 2
628 2
629 2
630 2
631 1
632 1
633 2
634 1
635 1
636 1
637 2
638 2
639 2
640 2
641 2
642 1
643 1
644 1
645 1
646 1
647 2
648 2
649 2
650 1
651 1
652 2
653 2
654 2
655 1
656 1
657 2
658 1
659 1
660 2
661 1
662 2
663 2
664 2
665 2
666 1
667 2
668 2
669 2
670 1
671 1
672 1
673 1
674 1
675 2
676 1
677 2
678 2
679 2
680 2
681 1
682 2
683 2
684 2
685 2
686 2
687 1
688 2
689 2
690 2
691 2
692 1
693 1
694 1
695 2
696 2
697 2
698 1
699 1
700 2
701 1
702 2
703 1
704 1
705 1
706 1
707 2
708 1
709 2
710 2
711 2
712 1
713 1
714 1
715 1
716 2
717 1
718 2
719 1
720 1
721 2
722 2
723 2
724 1
725 1
726 2
727 2
728 2
729 2
730 1
731 2
732 1
733 2
734 1
735 2
736 1
737 1
738 2
739 2
740 1
741 2
742 2
743 2
744 2
745 2
746 2
747 1
748 1
749 2
750 2
751 2
752 2
753 2
754 2
755 1
756 2
757 2
758 1
759 2
760 2
761 1
762 1
763 1
764 1
765 2
766 1
767 1
768 1
769 1
770 1
771 2
772 2
773 2
774 2
775 1
776 1
777 1
778 1
779 2
780 2
781 2
782 2
783 2
784 2
785 1
786 2
787 2
788 1
789 2
790 2
791 1
792 1
793 1
794 2
795 2
796 2
797 2
798 1
799 1
800 1
801 1
802 1
803 1
804 2
805 2
806 2
807 1
808 2
809 1
810 2
811 2
812 2
813 2
814 2
815 2
816 2
817 2
818 2
819 1
820 1
821 2
822 2
823 1
824 1
825 1
826 1
827 2
828 1
829 1
830 2
831 2
832 2
833 2
834 2
835 1
836 2
837 2
838 1
839 1
840 1
841 2
842 1
843 2
844 1
845 1
846 1
847 1
848 2
849 1
850 1
851 1
852 1
853 2
854 1
855 1
856 2
857 1
858 1
859 1
860 1
861 2
862 2
863 1
864 1
865 1
866 2
867 1
868 1
869 2
870 2
871 2
872 1
873 1
874 1
875 1
876 1
877 2
878 2
879 2
880 2
881 1
882 2
883 2
884 2
885 1
886 1
887 2
888 1
889 1
890 1
891 2
892 2
893 2
894 1
895 1
896 2
897 2
898 2
899 1
900 1
